\ENCODING=ISO-8859-1
\Problem name: 

Minimize
 obj: x1 + x2 + x3 + x4 + x5 + x6 + x7 + x8
Subject To
 c1: 5 x1 + x6 + x7 + 3 x8 >= 17
 c2: 2 x2 + 2 x7 >= 13
 c3: 2 x3 + x8 >= 12
 c4: 2 x4 >= 13
 c5: x5 + x6 >= 7
Bounds
      x1 >= 0
      x2 >= 0
      x3 >= 0
      x4 >= 0
      x5 >= 0
      x6 >= 0
      x7 >= 0
      x8 >= 0
Generals
 x1  x2  x3  x4  x5  x6  x7  x8 
End
